c Output_time 26.03.2020 18:15:10_+0100 1585242910434083886
c ** Program information **
c program_name                          "QBRG_debug"
c version                               "0.3.20"
c date                                  "25.3.2020"
c gid_id                                "673970833836058123f633335630c185360d632e"
c author                                "Oliver Kullmann"
c url                                   "https://github.com/OKullmann/oklibrary/blob/master/Satisfiability/Transformers/Generators/Random/QBRG.cpp"
c ** Machine information **
c machine_name                          "chyna-Lenovo-G50-70"
c bogomips                              3791.08
c ** Compilation information **
c compiler_version                      "g++ 7.5.0"
c compilation_date                      "Mar_26_2020 11:16:30"
c compilation_options                   "--std=c++17 -pedantic -fmax-errors=5 -Wall -Wextra -g -D_GLIBCXX_DEBUG"
c NDEBUG                                0
c OPTIMIZE                              0
c ** Parameters **
c command-line                          "./QBRG_debug" "a40 e40 a40 40" "160*1,1|2-2,1|3-3,1|4-4,1" "" "1,t" ""
c output                                "QuBlRaGe_160_160_1585242910409663393.qdimacs"
c options                               "filtered,renamed"
c num_quantifier_blocks                 4
c  quantifier_blocks                    1:a1-40 2:e41-80 3:a81-120 4:e121-160
c num_clause-blocks                     1
c  clause-blocks                        160 * {1-40,1,1/2} | {41-80,1,1/2} | {81-120,1,1/2} | {121-160,1,1/2}
c num_e-seeds                           37+2=39
c  e-seeds                              1 0 1 0 5 160 2 40 0 40 1 40 0 40 1 160 4 1 1 1 1 2 2 2 1 1 2 3 3 1 1 2 4 4 1 1 2 1 1585242910409662861
p cnf 158 160
a 1 2 3 4 5 6 7 8 9 10 11 12 13 14 15 16 17 18 19 20 21 22 23 24 25 26 27 28 29 30 31 32 33 34 35 36 37 38 39 0
e 40 41 42 43 44 45 46 47 48 49 50 51 52 53 54 55 56 57 58 59 60 61 62 63 64 65 66 67 68 69 70 71 72 73 74 75 76 77 78 79 0
a 80 81 82 83 84 85 86 87 88 89 90 91 92 93 94 95 96 97 98 99 100 101 102 103 104 105 106 107 108 109 110 111 112 113 114 115 116 117 118 119 0
e 120 121 122 123 124 125 126 127 128 129 130 131 132 133 134 135 136 137 138 139 140 141 142 143 144 145 146 147 148 149 150 151 152 153 154 155 156 157 158 0
18 72 91 120 0
-29 68 -98 -121 0
-17 67 -99 -121 0
14 58 -84 121 0
11 62 97 121 0
26 -45 119 -122 0
32 62 102 -123 0
-16 50 -109 -123 0
-15 -67 97 123 0
-17 -75 102 -124 0
-23 64 107 -124 0
39 -44 -84 124 0
-6 77 98 124 0
3 48 112 124 0
-31 55 -116 124 0
-2 -77 -86 125 0
13 56 -89 125 0
-32 -75 -101 125 0
16 -59 118 -126 0
29 75 88 127 0
2 47 -85 -128 0
3 69 114 -128 0
-38 43 -86 -129 0
-39 60 104 -129 0
-24 -66 84 129 0
8 62 -91 129 0
4 72 97 129 0
-21 70 89 -130 0
-29 62 99 -130 0
-10 61 -107 -130 0
34 45 81 130 0
-6 77 -82 130 0
-23 -40 -88 130 0
17 -55 -95 130 0
-15 60 110 130 0
12 52 82 -131 0
18 -44 -95 -131 0
33 63 -110 -131 0
-3 52 81 131 0
15 -66 -93 -132 0
-15 48 109 -132 0
9 -50 113 -132 0
20 -68 106 132 0
12 -64 82 -133 0
-13 -78 85 -133 0
-33 -60 93 -133 0
15 45 -98 -133 0
14 -62 -117 -133 0
-39 -62 -89 133 0
-5 62 98 133 0
3 64 105 133 0
-26 74 -117 133 0
33 55 82 -134 0
-22 -79 87 -134 0
38 -48 -89 -135 0
-33 -45 81 135 0
-25 44 -117 135 0
36 53 99 -136 0
37 -55 108 -136 0
-21 69 -110 -136 0
-34 -52 -118 -136 0
-31 -76 91 136 0
37 -55 111 136 0
-36 42 115 136 0
-23 -70 82 -137 0
-18 -58 -98 -137 0
-15 -60 -112 -137 0
-23 -46 85 -138 0
-6 63 103 -138 0
18 77 -92 138 0
19 -62 92 138 0
13 58 -94 138 0
-11 68 -89 -139 0
-30 45 -94 -139 0
11 -62 94 -139 0
-9 -65 95 -139 0
-23 54 -97 -139 0
-27 56 -99 -139 0
-2 -60 -86 139 0
-29 -48 -87 -140 0
-6 46 -96 -140 0
-16 73 113 -140 0
23 -75 -84 140 0
-25 -64 84 140 0
33 78 110 140 0
-23 41 91 -141 0
29 -41 81 141 0
-4 -51 -92 -142 0
12 -67 -111 -142 0
13 -58 80 -143 0
28 70 83 -143 0
-10 63 90 -143 0
5 79 102 -143 0
-12 -45 -113 -143 0
1 -70 -84 143 0
-11 61 101 143 0
-17 55 103 143 0
-10 -78 80 144 0
15 71 -87 144 0
-23 -63 -103 144 0
31 48 96 -145 0
-28 41 -102 -146 0
-22 79 -109 -146 0
20 77 92 146 0
7 60 -98 146 0
-28 -73 112 -147 0
-26 -42 -100 147 0
12 -67 100 147 0
-6 78 -83 -148 0
-16 -56 -98 -148 0
-22 -63 99 -148 0
-28 68 -92 148 0
26 -50 115 148 0
-36 70 -92 -149 0
7 -53 -97 -149 0
1 -78 -97 -149 0
27 71 -98 -149 0
-22 75 -85 -150 0
-35 -55 90 -150 0
20 50 108 -150 0
20 42 81 150 0
10 -57 82 150 0
-15 46 -99 150 0
-3 49 -105 150 0
17 74 116 150 0
24 -59 -90 151 0
20 42 110 151 0
6 47 114 151 0
-33 -62 -81 -152 0
-18 53 100 -152 0
-1 -58 107 -152 0
-35 53 112 -152 0
11 -72 102 152 0
-19 41 -106 152 0
-38 -61 86 -153 0
-37 57 -99 -153 0
-10 58 99 -153 0
39 -79 -113 -153 0
10 -49 -81 153 0
35 67 83 153 0
-18 42 -105 153 0
32 -60 -93 -154 0
7 56 80 154 0
30 -48 84 154 0
-13 -43 -98 154 0
-39 -45 108 154 0
-23 -42 -111 -155 0
-29 46 -96 155 0
-33 55 115 155 0
-31 53 -83 -156 0
31 -53 -83 156 0
38 57 -90 156 0
30 -79 -90 -157 0
-21 43 -81 157 0
6 42 -88 157 0
24 64 108 157 0
-29 -71 -102 -158 0
-34 75 -111 -158 0
-27 45 -114 -158 0
13 76 85 158 0
